#######################################
### Exact MIP solver for the HHCRSP ###
#######################################
-- Instance file: new-instances/HHCRSP_100_20_75_0.4_C_C.txt
-- Max threads: 4
-- Time limit: 999999 seconds
-- Use initial solution: No
Trivial flow violations prevented generating 44313 variables.
Model exported.
Version identifier: 20.1.0.0 | 2020-11-10 | 9bedb6d68
CPXPARAM_Threads                                 4
CPXPARAM_TimeLimit                               999999
Parallel mode: deterministic, using up to 4 threads for concurrent optimization:
 * Starting dual Simplex on 1 thread...
 * Starting Barrier on 3 threads...
Tried aggregator 1 time.
LP Presolve eliminated 4656 rows and 1009 columns.
Reduced LP has 39280 rows, 37717 columns, and 423232 nonzeros.
Presolve time = 0.22 sec. (111.95 ticks)
Symmetry aggregator did 34628 additional substitutions.

Iteration log . . .
Iteration:     1   Dual objective     =             0.000000
Iteration:   490   Dual objective     =           194.666667

Dual crossover.
  Dual:  Fixing 272 variables.
      271 DMoves:  Infeasibility  1.06747969e-13  Objective  1.95000000e+02
        0 DMoves:  Infeasibility  7.68829697e-14  Objective  1.95000000e+02
  Dual:  Pushed 19, exchanged 253.
  Primal:  Fixing 90 variables.
       89 PMoves:  Infeasibility  1.42464165e-15  Objective  1.95000000e+02
        0 PMoves:  Infeasibility  1.68354913e-15  Objective  1.95000000e+02
  Primal:  Pushed 48, exchanged 42.

Dual simplex solved model.


Solution status from MIP model:
-- Processing time: 0.399 sec.
-- Memory used: 114.204 MB
-- Best bound: inf
-- Obj value: 195
-- Gap: inf%
-- Total distance: 585
-- Total tardiness: 0
-- Largest tardiness: 0
